221 300 123 105 122 166 106 154 166 189 119 139 112 175 173 181 129 172 158 179 113 108 172 140 155 142 138 172 153 165 104 146 166 194 151 189 160 124 142 125 112 162 165 124 102 103 104 199 175 128 177 154 103 149 160 158 157 165 129 176 129 200 121 161 194 139 149 153 163 158 144 175 186 108 165 154 111 136 152 153 164 129 173 167 144 133 125 167 198 154 109 193 120 197 153 113 135 169 132 164 126 176 138 111 151 170 131 128 105 184 147 169 179 120 136 189 119 161 155 183 181 130 175 100 127 194 180 128 162 111 193 154 188 197 131 138 166 163 132 171 146 180 140 191 200 176 179 185 102 133 167 149 164 141 116 157 100 196 185 129 107 177 183 161 174 114 199 105 143 130 177 189 176 116 145 175 158 123 159 126 156 125 175 186 132 191 108 200 153 194 128 160 136 110 120 176 191 185 182 133 181 158 188 157 140 132 198 198 155 123 190 178 114 164 129 113 121 104 112 174 198 140 200 